p cnf 79 288
-1 -2 -3 0
1 2 -3 0
-1 2 3 0
1 -2 3 0
-6 -4 0
-6 -5 0
4 5 6 0
-7 3 0
-7 6 0
-3 -6 7 0
9 -8 0
9 -8 0
8 -9 0
-10 7 0
-10 -9 0
-7 9 10 0
11 -7 0
11 6 0
7 -6 -11 0
-11 5 -12 0
11 -5 -12 0
-11 -5 12 0
11 5 12 0
13 -9 0
13 -2 0
9 2 -13 0
15 13 0
15 -14 0
-13 14 -15 0
16 12 0
16 -15 0
-12 15 -16 0
18 -5 0
18 2 0
5 -2 -18 0
-18 2 -19 0
18 -2 -19 0
-18 -2 19 0
18 2 19 0
-20 -19 0
-20 4 0
19 -4 20 0
21 20 0
21 20 0
-20 -21 0
22 -21 0
22 4 0
21 -4 -22 0
23 -17 0
23 -22 0
17 22 -23 0
-3 8 -24 0
3 -8 -24 0
-3 -8 24 0
3 8 24 0
-23 -24 -25 0
23 24 -25 0
-23 24 25 0
23 -24 25 0
-26 16 0
-26 25 0
-16 -25 26 0
-27 -10 0
-27 -26 0
10 26 27 0
28 2 0
28 1 0
-2 -1 -28 0
29 -8 0
29 28 0
8 -28 -29 0
30 17 0
30 29 0
-17 -29 -30 0
-31 14 0
-31 -30 0
-14 30 31 0
-28 -29 -32 0
28 29 -32 0
-28 29 32 0
28 -29 32 0
33 31 0
33 32 0
-31 -32 -33 0
-27 -33 -34 0
27 33 -34 0
-27 33 34 0
27 -33 34 0
-36 -9 0
-36 35 0
9 -35 36 0
37 -29 0
37 14 0
29 -14 -37 0
38 -36 0
38 -37 0
36 37 -38 0
-39 5 0
-39 -35 0
-5 35 39 0
-40 39 0
-40 -1 0
-39 1 40 0
-41 4 0
-41 -40 0
-4 40 41 0
-42 41 0
-42 -23 0
-41 23 42 0
43 38 0
43 -42 0
-38 42 -43 0
-44 18 0
-44 28 0
-18 -28 44 0
46 3 0
46 -45 0
-3 45 -46 0
-44 46 -47 0
44 -46 -47 0
-44 -46 47 0
44 46 47 0
-48 5 0
-48 20 0
-5 -20 48 0
-49 47 0
-49 -48 0
-47 48 49 0
50 -43 0
50 -49 0
43 49 -50 0
34 -50 -51 0
-34 50 -51 0
34 50 51 0
-34 -50 51 0
52 -1 0
52 -7 0
1 7 -52 0
53 52 0
53 3 0
-52 -3 -53 0
29 -18 -54 0
-29 18 -54 0
29 18 54 0
-29 -18 54 0
-55 -28 0
-55 -17 0
28 17 55 0
56 40 0
56 -55 0
-40 55 -56 0
-57 -54 0
-57 -56 0
54 56 57 0
58 -4 0
58 8 0
4 -8 -58 0
-59 -57 0
-59 58 0
57 -58 59 0
60 -8 0
60 4 0
8 -4 -60 0
35 60 -61 0
-35 -60 -61 0
35 -60 61 0
-35 60 61 0
-59 61 -62 0
59 -61 -62 0
-59 -61 62 0
59 61 62 0
53 -62 -63 0
-53 62 -63 0
53 62 63 0
-53 -62 63 0
-64 3 0
-64 -21 0
-3 21 64 0
65 66 0
-65 66 0
-67 64 0
-67 66 0
-64 -66 67 0
-68 14 0
-68 4 0
-14 -4 68 0
-69 -14 0
-69 -28 0
14 28 69 0
70 68 0
70 69 0
-68 -69 -70 0
71 8 0
71 2 0
-8 -2 -71 0
41 55 -72 0
-41 -55 -72 0
41 -55 72 0
-41 55 72 0
-73 71 0
-73 -72 0
-71 72 73 0
-74 70 0
-74 73 0
-70 -73 74 0
-75 67 0
-75 74 0
-67 -74 75 0
-76 63 0
-76 75 0
-63 -75 76 0
-39 12 -77 0
39 -12 -77 0
-39 -12 77 0
39 12 77 0
78 -76 0
78 77 0
76 -77 -78 0
79 -51 0
79 78 0
51 -78 -79 0
48 42 -76 9 55 -30 0
-2 7 10 0
-66 9 0
-4 24 19 -17 0
-64 -2 28 0
-10 -74 -45 38 -66 -18 0
78 -31 -62 -30 19 -74 0
-29 -71 8 -14 0
-12 43 0
32 44 0
48 -24 -47 0
75 62 -21 0
-49 52 -2 0
-55 53 -27 -71 0
-8 -33 37 0
-42 -67 -72 -47 -16 0
-68 78 -22 -2 -53 -17 0
-59 10 16 0
-62 71 -40 59 -79 0
-19 -48 -50 24 -56 0
-24 -18 79 -43 -38 0
56 -8 73 -11 0
-27 -33 5 0
66 -12 -17 0
69 -34 0
-50 38 -14 0
2 52 66 16 0
14 1 30 0
17 11 35 53 25 13 0
4 38 -56 -7 0
-19 78 -40 -77 32 -22 0
-61 12 42 -5 0
-76 9 77 57 -24 0
-78 70 0
-65 -77 42 0
4 -1 36 -34 53 0
-48 28 -14 -34 -78 0
-4 6 -50 -7 -17 -10 0
60 48 -3 -10 23 27 0
-51 -6 -9 58 0
54 4 34 0
53 -21 -47 -62 -19 0
10 75 -65 0
-73 -50 -47 0
-11 7 0
9 57 -13 0
21 -67 69 66 -3 0
-6 -66 21 0
71 66 74 -41 -47 0
-19 -3 -77 0
-57 -55 78 -41 0
66 52 0
-39 16 49 0
32 -74 0
-67 -21 49 0
31 14 -57 42 0
-41 79 24 66 -26 0
73 -30 10 0
6 -59 36 72 0
-64 -68 0
-43 79 -25 69 -6 -56 0
31 -7 -10 29 0
72 4 -37 79 41 0
-7 51 -6 -29 0
-22 -73 -74 46 0
-1 10 38 -15 -40 0
79 0
